30
4	6	8	12	13	14	18	19	22	23	25	26	28	30	0
4	5	7	13	17	19	22	23	28	29	30	0
6	8	10	11	12	13	15	29	0
1	2	5	9	10	11	13	14	16	21	22	27	29	0
2	4	19	20	21	22	23	24	26	0
1	3	7	9	10	12	13	17	18	19	20	22	23	25	27	29	0
2	6	9	10	12	13	15	16	19	22	27	28	0
1	3	10	12	14	17	18	19	20	21	22	29	30	0
4	6	7	15	17	18	20	21	23	25	30	0
3	4	6	7	8	15	16	17	19	22	24	25	26	30	0
3	4	15	19	21	24	26	29	0
1	3	6	7	8	16	20	25	28	0
1	2	3	4	6	7	14	17	18	19	21	22	23	25	30	0
1	4	8	13	18	19	20	21	22	23	25	0
3	7	9	10	11	18	21	23	25	0
4	7	10	12	17	19	23	27	29	0
2	6	8	9	10	13	16	18	19	20	23	26	29	0
1	6	8	9	13	14	15	17	20	22	23	27	29	0
1	2	5	6	7	8	10	11	13	14	16	17	21	24	25	29	0
5	6	8	9	12	14	17	18	21	24	0
4	5	8	9	11	13	14	15	19	20	23	0
1	2	4	5	6	7	8	10	13	14	18	24	25	0
1	2	5	6	9	13	14	15	16	17	18	21	25	27	28	29	30	0
5	10	11	19	20	22	25	26	27	0
1	6	9	10	12	13	14	15	19	22	23	24	28	0
1	5	10	11	17	24	27	28	29	0
4	6	7	16	18	23	24	26	29	30	0
1	2	7	12	23	25	26	0
2	3	4	6	8	11	16	17	18	19	23	26	27	0
1	2	8	9	10	13	23	27	0


comments:
random graph
nodes 30
edges 172
rng seed 624 
